# Solution for model metamorphosis_srl_ilp
# Objective value = 9.3047284870327562e-01
Z_331_0_0 0
Z_331_0_1 0
Z_331_0_2 0
Z_331_0_3 1
Z_629_0_0 1
Z_629_0_1 0
Z_629_0_2 0
Z_629_0_3 0
Z_660_0_0 0
Z_660_0_1 0
Z_660_0_2 1
Z_660_0_3 0
Z_177_0_0 1
Z_177_0_1 0
Z_177_0_2 0
Z_177_0_3 0
